c SOURCE: Kazuo Iwama, Eiji Miyano (miyano@cscu.kyushu-u.ac.jp),
c          and Yuichi Asahiro
c
c DESCRIPTION: Artifical instances from generator by source.  Generators
c              and more information in sat/contributed/iwama.
c
c NOTE: Satisfiable
c
p cnf 50 80
16 17 30 0
-17 22 30 0
-17 -22 30 0
16 -30 47 0
16 -30 -47 0
-16 -21 31 0
-16 -21 -31 0
-16 21 -28 0
-13 21 28 0
13 -16 18 0
13 -18 -38 0
13 -18 -31 0
31 38 44 0
-8 31 -44 0
8 -12 -44 0
8 12 -27 0
12 27 40 0
-4 27 -40 0
12 23 -40 0
-3 4 -23 0